p cnf 609
-9 -191
-10 -194
-11 -197
-12 -200
-13 -203
-14 -206
-15 -209
-16 -212
-17 213
-18 214
-19 215
-20 216
-21 217
-22 218
-23 -10
-23 -11
10 11 23
-24 -12
-24 -13
12 13 24
-25 -14
-25 -15
14 15 25
-26 -16
-26 -17
16 17 26
-27 -18
-27 -19
18 19 27
-28 -20
-28 -21
20 21 28
-29 23
-29 24
-23 -24 29
-30 25
-30 26
-25 -26 30
-31 27
-31 28
-27 -28 31
-32 29
-32 30
-29 -30 32
-33 -22
-33 31
22 -31 33
-34 32
-34 33
-32 -33 34
-35 -9
-35 10
9 -10 35
-36 9
-36 -10
-9 10 36
-37 -35
-37 -36
35 36 37
-38 9
-38 10
-9 -10 38
-39 -9
-39 -37
9 37 39
-40 9
-40 37
-9 -37 40
-41 -39
-41 -40
39 40 41
-42 9
-42 -37
-9 37 42
-43 -38
-43 -42
38 42 43
-44 -10
-44 11
10 -11 44
-45 10
-45 -11
-10 11 45
-46 -44
-46 -45
44 45 46
-47 10
-47 11
-10 -11 47
-48 43
-48 -46
-43 46 48
-49 -43
-49 46
43 -46 49
-50 -48
-50 -49
48 49 50
-51 -43
-51 -46
43 46 51
-52 -47
-52 -51
47 51 52
-53 -11
-53 12
11 -12 53
-54 11
-54 -12
-11 12 54
-55 -53
-55 -54
53 54 55
-56 11
-56 12
-11 -12 56
-57 52
-57 -55
-52 55 57
-58 -52
-58 55
52 -55 58
-59 -57
-59 -58
57 58 59
-60 -52
-60 -55
52 55 60
-61 -56
-61 -60
56 60 61
-62 -12
-62 13
12 -13 62
-63 12
-63 -13
-12 13 63
-64 -62
-64 -63
62 63 64
-65 12
-65 13
-12 -13 65
-66 61
-66 -64
-61 64 66
-67 -61
-67 64
61 -64 67
-68 -66
-68 -67
66 67 68
-69 -61
-69 -64
61 64 69
-70 -65
-70 -69
65 69 70
-71 -13
-71 14
13 -14 71
-72 13
-72 -14
-13 14 72
-73 -71
-73 -72
71 72 73
-74 13
-74 14
-13 -14 74
-75 70
-75 -73
-70 73 75
-76 -70
-76 73
70 -73 76
-77 -75
-77 -76
75 76 77
-78 -70
-78 -73
70 73 78
-79 -74
-79 -78
74 78 79
-80 -14
-80 15
14 -15 80
-81 14
-81 -15
-14 15 81
-82 -80
-82 -81
80 81 82
-83 14
-83 15
-14 -15 83
-84 79
-84 -82
-79 82 84
-85 -79
-85 82
79 -82 85
-86 -84
-86 -85
84 85 86
-87 -79
-87 -82
79 82 87
-88 -83
-88 -87
83 87 88
-89 -15
-89 16
15 -16 89
-90 15
-90 -16
-15 16 90
-91 -89
-91 -90
89 90 91
-92 15
-92 16
-15 -16 92
-93 88
-93 -91
-88 91 93
-94 -88
-94 91
88 -91 94
-95 -93
-95 -94
93 94 95
-96 -88
-96 -91
88 91 96
-97 -92
-97 -96
92 96 97
-98 -16
-98 17
16 -17 98
-99 16
-99 -17
-16 17 99
-100 -98
-100 -99
98 99 100
-101 16
-101 17
-16 -17 101
-102 97
-102 -100
-97 100 102
-103 -97
-103 100
97 -100 103
-104 -102
-104 -103
102 103 104
-105 -97
-105 -100
97 100 105
-106 -101
-106 -105
101 105 106
-107 -17
-107 18
17 -18 107
-108 17
-108 -18
-17 18 108
-109 -107
-109 -108
107 108 109
-110 17
-110 18
-17 -18 110
-111 106
-111 -109
-106 109 111
-112 -106
-112 109
106 -109 112
-113 -111
-113 -112
111 112 113
-114 -106
-114 -109
106 109 114
-115 -110
-115 -114
110 114 115
-116 -18
-116 19
18 -19 116
-117 18
-117 -19
-18 19 117
-118 -116
-118 -117
116 117 118
-119 18
-119 19
-18 -19 119
-120 115
-120 -118
-115 118 120
-121 -115
-121 118
115 -118 121
-122 -120
-122 -121
120 121 122
-123 -115
-123 -118
115 118 123
-124 -119
-124 -123
119 123 124
-125 -19
-125 20
19 -20 125
-126 19
-126 -20
-19 20 126
-127 -125
-127 -126
125 126 127
-128 19
-128 20
-19 -20 128
-129 124
-129 -127
-124 127 129
-130 -124
-130 127
124 -127 130
-131 -129
-131 -130
129 130 131
-132 -124
-132 -127
124 127 132
-133 -128
-133 -132
128 132 133
-134 -20
-134 21
20 -21 134
-135 20
-135 -21
-20 21 135
-136 -134
-136 -135
134 135 136
-137 20
-137 21
-20 -21 137
-138 133
-138 -136
-133 136 138
-139 -133
-139 136
133 -136 139
-140 -138
-140 -139
138 139 140
-141 -133
-141 -136
133 136 141
-142 -137
-142 -141
137 141 142
-143 -21
-143 22
21 -22 143
-144 21
-144 -22
-21 22 144
-145 -143
-145 -144
143 144 145
-146 21
-146 22
-21 -22 146
-147 142
-147 -145
-142 145 147
-148 -142
-148 145
142 -145 148
-149 -147
-149 -148
147 148 149
-150 -142
-150 -145
142 145 150
-151 -146
-151 -150
146 150 151
-152 9
-152 -41
-9 41 152
-153 -9
-153 11
9 -11 153
-154 -152
-154 -153
152 153 154
-155 9
-155 -50
-9 50 155
-156 -9
-156 12
9 -12 156
-157 -155
-157 -156
155 156 157
-158 9
-158 -59
-9 59 158
-159 -9
-159 13
9 -13 159
-160 -158
-160 -159
158 159 160
-161 9
-161 -68
-9 68 161
-162 -9
-162 14
9 -14 162
-163 -161
-163 -162
161 162 163
-164 9
-164 -77
-9 77 164
-165 -9
-165 15
9 -15 165
-166 -164
-166 -165
164 165 166
-167 9
-167 -86
-9 86 167
-168 -9
-168 16
9 -16 168
-169 -167
-169 -168
167 168 169
-170 9
-170 -95
-9 95 170
-171 -9
-171 17
9 -17 171
-172 -170
-172 -171
170 171 172
-173 9
-173 -104
-9 104 173
-174 -9
-174 18
9 -18 174
-175 -173
-175 -174
173 174 175
-176 9
-176 -113
-9 113 176
-177 -9
-177 19
9 -19 177
-178 -176
-178 -177
176 177 178
-179 9
-179 -122
-9 122 179
-180 -9
-180 20
9 -20 180
-181 -179
-181 -180
179 180 181
-182 9
-182 -131
-9 131 182
-183 -9
-183 21
9 -21 183
-184 -182
-184 -183
182 183 184
-185 9
-185 -140
-9 140 185
-186 -9
-186 22
9 -22 186
-187 -185
-187 -186
185 186 187
-188 9
-188 -149
-9 149 188
-189 1
-189 34
-1 -34 189
-190 -34
-190 35
34 -35 190
-191 -189
-191 -190
189 190 191
-192 2
-192 34
-2 -34 192
-193 -34
-193 -154
34 154 193
-194 -192
-194 -193
192 193 194
-195 3
-195 34
-3 -34 195
-196 -34
-196 -157
34 157 196
-197 -195
-197 -196
195 196 197
-198 4
-198 34
-4 -34 198
-199 -34
-199 -160
34 160 199
-200 -198
-200 -199
198 199 200
-201 5
-201 34
-5 -34 201
-202 -34
-202 -163
34 163 202
-203 -201
-203 -202
201 202 203
-204 6
-204 34
-6 -34 204
-205 -34
-205 -166
34 166 205
-206 -204
-206 -205
204 205 206
-207 7
-207 34
-7 -34 207
-208 -34
-208 -169
34 169 208
-209 -207
-209 -208
207 208 209
-210 8
-210 34
-8 -34 210
-211 -34
-211 -172
34 172 211
-212 -210
-212 -211
210 211 212
-213 -34
-213 -175
34 175 213
-214 -34
-214 -178
34 178 214
-215 -34
-215 -181
34 181 215
-216 -34
-216 -184
34 184 216
-217 -34
-217 -187
34 187 217
-218 -34
-218 188
34 -188 218
-219 -22
-219 151
22 -151 219
-220 9
-220 -219
-9 219 220
220
